12° run output:
{
    "Function": "euclidA500.tsp",
    "Problem dimension": [
        34,
        352,
        311,
        151,
        323,
        16,
        97,
        458,
        303,
        450,
        98,
        360,
        83,
        198,
        147,
        330,
        332,
        470,
        482,
        457,
        21,
        268,
        11,
        314,
        305,
        159,
        359,
        240,
        220,
        473,
        252,
        26,
        435,
        46,
        335,
        158,
        27,
        144,
        278,
        287,
        165,
        370,
        289,
        277,
        267,
        302,
        459,
        74,
        276,
        386,
        39,
        179,
        154,
        326,
        75,
        453,
        441,
        376,
        52,
        120,
        456,
        260,
        245,
        40,
        395,
        41,
        203,
        384,
        317,
        373,
        263,
        431,
        315,
        385,
        437,
        10,
        17,
        205,
        472,
        22,
        118,
        319,
        481,
        345,
        224,
        318,
        162,
        322,
        417,
        94,
        4,
        51,
        185,
        374,
        397,
        367,
        469,
        474,
        219,
        149,
        131,
        233,
        451,
        398,
        432,
        414,
        183,
        59,
        286,
        402,
        316,
        186,
        296,
        484,
        350,
        60,
        56,
        134,
        427,
        272,
        76,
        115,
        298,
        429,
        25,
        309,
        255,
        434,
        132,
        230,
        191,
        477,
        336,
        201,
        409,
        455,
        153,
        138,
        300,
        6,
        419,
        207,
        308,
        280,
        175,
        211,
        406,
        351,
        283,
        236,
        271,
        341,
        173,
        468,
        213,
        423,
        178,
        3,
        242,
        163,
        342,
        436,
        77,
        389,
        38,
        375,
        45,
        480,
        254,
        160,
        275,
        290,
        452,
        408,
        393,
        172,
        111,
        251,
        421,
        356,
        110,
        223,
        343,
        301,
        462,
        392,
        444,
        192,
        420,
        438,
        371,
        202,
        325,
        492,
        447,
        475,
        166,
        161,
        182,
        67,
        177,
        490,
        340,
        496,
        394,
        440,
        127,
        410,
        114,
        368,
        1,
        91,
        197,
        184,
        405,
        312,
        50,
        32,
        232,
        215,
        168,
        483,
        355,
        28,
        363,
        225,
        261,
        68,
        297,
        380,
        339,
        498,
        228,
        139,
        85,
        288,
        346,
        269,
        274,
        243,
        399,
        113,
        82,
        463,
        353,
        23,
        95,
        486,
        20,
        234,
        193,
        333,
        124,
        258,
        58,
        465,
        174,
        250,
        61,
        204,
        354,
        279,
        281,
        365,
        206,
        349,
        187,
        135,
        418,
        152,
        169,
        90,
        388,
        130,
        428,
        304,
        294,
        37,
        247,
        194,
        164,
        270,
        212,
        499,
        176,
        337,
        357,
        18,
        92,
        7,
        310,
        107,
        347,
        103,
        8,
        401,
        0,
        329,
        448,
        407,
        136,
        348,
        14,
        29,
        109,
        229,
        146,
        73,
        71,
        200,
        497,
        2,
        57,
        63,
        122,
        488,
        227,
        331,
        116,
        5,
        93,
        404,
        208,
        449,
        148,
        382,
        284,
        321,
        195,
        15,
        128,
        433,
        273,
        210,
        411,
        9,
        117,
        253,
        49,
        295,
        454,
        293,
        412,
        101,
        415,
        119,
        102,
        257,
        141,
        241,
        282,
        96,
        43,
        217,
        44,
        24,
        196,
        239,
        292,
        442,
        403,
        381,
        495,
        377,
        143,
        199,
        180,
        445,
        246,
        320,
        489,
        129,
        12,
        155,
        226,
        42,
        358,
        150,
        383,
        79,
        84,
        485,
        426,
        106,
        188,
        487,
        425,
        80,
        422,
        209,
        471,
        266,
        424,
        190,
        19,
        464,
        167,
        55,
        313,
        344,
        467,
        33,
        446,
        65,
        221,
        72,
        479,
        156,
        416,
        47,
        262,
        334,
        70,
        35,
        324,
        361,
        378,
        64,
        338,
        366,
        364,
        285,
        307,
        30,
        142,
        86,
        256,
        264,
        88,
        244,
        306,
        69,
        48,
        216,
        189,
        214,
        460,
        372,
        493,
        126,
        133,
        265,
        170,
        105,
        145,
        100,
        171,
        369,
        466,
        181,
        157,
        231,
        328,
        400,
        362,
        430,
        390,
        379,
        78,
        112,
        222,
        461,
        439,
        104,
        53,
        396,
        123,
        36,
        387,
        125,
        248,
        478,
        391,
        99,
        291,
        140,
        54,
        259,
        137,
        66,
        81,
        443,
        413,
        218,
        237,
        89,
        121,
        108,
        13,
        491,
        299,
        494,
        238,
        87,
        249,
        235,
        476,
        31,
        327,
        62
    ],
    "Global Optimum": 0,
    "Algorithm": "Genetic algorithm",
    "Parameters": {
        "population": 30,
        "offspring": 30,
        "mutation probability": 0.002,
        "crossover probability": 0.9
    },
    "Fitness": 683213,
    "Solution": [
        34,
        352,
        311,
        151,
        323,
        16,
        97,
        458,
        303,
        450,
        98,
        360,
        83,
        198,
        147,
        330,
        332,
        470,
        482,
        457,
        21,
        268,
        11,
        314,
        305,
        159,
        359,
        240,
        220,
        473,
        252,
        26,
        435,
        46,
        335,
        158,
        27,
        144,
        278,
        287,
        165,
        370,
        289,
        277,
        267,
        302,
        459,
        74,
        276,
        386,
        39,
        179,
        154,
        326,
        75,
        453,
        441,
        376,
        52,
        120,
        456,
        260,
        245,
        40,
        395,
        41,
        203,
        384,
        317,
        373,
        263,
        431,
        315,
        385,
        437,
        10,
        17,
        205,
        472,
        22,
        118,
        319,
        481,
        345,
        224,
        318,
        162,
        322,
        417,
        94,
        4,
        51,
        185,
        374,
        397,
        367,
        469,
        474,
        219,
        149,
        131,
        233,
        451,
        398,
        432,
        414,
        183,
        59,
        286,
        402,
        316,
        186,
        296,
        484,
        350,
        60,
        56,
        134,
        427,
        272,
        76,
        115,
        298,
        429,
        25,
        309,
        255,
        434,
        132,
        230,
        191,
        477,
        336,
        201,
        409,
        455,
        153,
        138,
        300,
        6,
        419,
        207,
        308,
        280,
        175,
        211,
        406,
        351,
        283,
        236,
        271,
        341,
        173,
        468,
        213,
        423,
        178,
        3,
        242,
        163,
        342,
        436,
        77,
        389,
        38,
        375,
        45,
        480,
        254,
        160,
        275,
        290,
        452,
        408,
        393,
        172,
        111,
        251,
        421,
        356,
        110,
        223,
        343,
        301,
        462,
        392,
        444,
        192,
        420,
        438,
        371,
        202,
        325,
        492,
        447,
        475,
        166,
        161,
        182,
        67,
        177,
        490,
        340,
        496,
        394,
        440,
        127,
        410,
        114,
        368,
        1,
        91,
        197,
        184,
        405,
        312,
        50,
        32,
        232,
        215,
        168,
        483,
        355,
        28,
        363,
        225,
        261,
        68,
        297,
        380,
        339,
        498,
        228,
        139,
        85,
        288,
        346,
        269,
        274,
        243,
        399,
        113,
        82,
        463,
        353,
        23,
        95,
        486,
        20,
        234,
        193,
        333,
        124,
        258,
        58,
        465,
        174,
        250,
        61,
        204,
        354,
        279,
        281,
        365,
        206,
        349,
        187,
        135,
        418,
        152,
        169,
        90,
        388,
        130,
        428,
        304,
        294,
        37,
        247,
        194,
        164,
        270,
        212,
        499,
        176,
        337,
        357,
        18,
        92,
        7,
        310,
        107,
        347,
        103,
        8,
        401,
        0,
        329,
        448,
        407,
        136,
        348,
        14,
        29,
        109,
        229,
        146,
        73,
        71,
        200,
        497,
        2,
        57,
        63,
        122,
        488,
        227,
        331,
        116,
        5,
        93,
        404,
        208,
        449,
        148,
        382,
        284,
        321,
        195,
        15,
        128,
        433,
        273,
        210,
        411,
        9,
        117,
        253,
        49,
        295,
        454,
        293,
        412,
        101,
        415,
        119,
        102,
        257,
        141,
        241,
        282,
        96,
        43,
        217,
        44,
        24,
        196,
        239,
        292,
        442,
        403,
        381,
        495,
        377,
        143,
        199,
        180,
        445,
        246,
        320,
        489,
        129,
        12,
        155,
        226,
        42,
        358,
        150,
        383,
        79,
        84,
        485,
        426,
        106,
        188,
        487,
        425,
        80,
        422,
        209,
        471,
        266,
        424,
        190,
        19,
        464,
        167,
        55,
        313,
        344,
        467,
        33,
        446,
        65,
        221,
        72,
        479,
        156,
        416,
        47,
        262,
        334,
        70,
        35,
        324,
        361,
        378,
        64,
        338,
        366,
        364,
        285,
        307,
        30,
        142,
        86,
        256,
        264,
        88,
        244,
        306,
        69,
        48,
        216,
        189,
        214,
        460,
        372,
        493,
        126,
        133,
        265,
        170,
        105,
        145,
        100,
        171,
        369,
        466,
        181,
        157,
        231,
        328,
        400,
        362,
        430,
        390,
        379,
        78,
        112,
        222,
        461,
        439,
        104,
        53,
        396,
        123,
        36,
        387,
        125,
        248,
        478,
        391,
        99,
        291,
        140,
        54,
        259,
        137,
        66,
        81,
        443,
        413,
        218,
        237,
        89,
        121,
        108,
        13,
        491,
        299,
        494,
        238,
        87,
        249,
        235,
        476,
        31,
        327,
        62
    ],
    "Nb of functions evaluations": 50010,
    "Computational time in seconds": 364.62892985343933,
    "Stopping criterion in evaluations": 50000
}